%%%mzn-stat: initTime=0.003072497
%%%mzn-stat: objective=416
%%%mzn-stat: nodes=1627
%%%mzn-stat: restarts=0
%%%mzn-stat: peakDepth=104
%%%mzn-stat: solveTime=0.042515796
%%%mzn-stat: variables=280
%%%mzn-stat: propagators=183
%%%mzn-stat: failures=614
%%%mzn-stat: propagations=53520
%%%mzn-stat: nogoods=614
%%%mzn-stat: AverageConflictSize=5.6172638436482085
%%%mzn-stat: NumUnitNogoodsLearned=415
%%%mzn-stat: AverageLearnedNogoodLength=3.6449511400651464
%%%mzn-stat: AverageBacktrackAmount=0
%%%mzn-stat: AverageLbd=2.6335504885993486
%%%mzn-stat-end
maxleg = 416;
succ = array1d(1..20,[19, 17, 6, 5, 18, 13, 20, 7, 12, 15, 16, 1, 2, 8, 4, 9, 14, 11, 3, 10]);
% time elapsed: 1.59 s
----------
==========
% time elapsed: 1.59 s
%%%mzn-stat: initTime=0.003072497
%%%mzn-stat: objective=416
%%%mzn-stat: nodes=1627
%%%mzn-stat: restarts=0
%%%mzn-stat: peakDepth=104
%%%mzn-stat: solveTime=0.042518977
%%%mzn-stat: variables=280
%%%mzn-stat: propagators=183
%%%mzn-stat: failures=614
%%%mzn-stat: propagations=53520
%%%mzn-stat: nogoods=614
%%%mzn-stat: AverageConflictSize=5.6172638436482085
%%%mzn-stat: NumUnitNogoodsLearned=415
%%%mzn-stat: AverageLearnedNogoodLength=3.6449511400651464
%%%mzn-stat: AverageBacktrackAmount=0
%%%mzn-stat: AverageLbd=2.6335504885993486
%%%mzn-stat-end
